12 66
1 2 5
1 3 2
1 4 4
1 5 5
1 6 2
1 7 4
1 8 4
1 9 1
1 10 5
1 11 2
1 12 2
2 3 1
2 4 5
2 5 4
2 6 4
2 7 1
2 8 2
2 9 2
2 10 5
2 11 1
2 12 5
3 4 2
3 5 2
3 6 3
3 7 5
3 8 5
3 9 5
3 10 2
3 11 1
3 12 3
4 5 4
4 6 4
4 7 4
4 8 1
4 9 5
4 10 2
4 11 3
4 12 2
5 6 1
5 7 2
5 8 3
5 9 3
5 10 4
5 11 4
5 12 3
6 7 1
6 8 2
6 9 5
6 10 5
6 11 3
6 12 1
7 8 2
7 9 2
7 10 4
7 11 1
7 12 1
8 9 3
8 10 1
8 11 2
8 12 3
9 10 3
9 11 5
9 12 5
10 11 1
10 12 5
11 12 2
